NAME : LPS-n26-m27
COMMENT : (Lartu-Peter-Santi Plot, instance 9227 out of 39200. 26 customers.)
TYPE : CVRP
DIMENSION : 26
EDGE_WEIGHT_TYPE : EUC_2D
CAPACITY : 149
NODE_COORD_SECTION
 1 64 87
 2 5 77
 3 5 16
 4 48 54
 5 8 95
 6 49 7
 7 8 78
 8 21 75
 9 88 97
 10 25 47
 11 18 56
 12 95 67
 13 59 55
 14 71 28
 15 43 10
 16 90 41
 17 53 68
 18 96 43
 19 20 79
 20 11 89
 21 67 83
 22 74 28
 23 57 19
 24 89 30
 25 45 66
 26 32 11
DEMAND_SECTION
1 0
2 125
3 82
4 96
5 149
6 91
7 63
8 2
9 113
10 1
11 130
12 14
13 113
14 51
15 19
16 18
17 49
18 105
19 82
20 6
21 6
22 91
23 95
24 75
25 2
26 11
DEPOT_SECTION
 1
 -1
EOF
